n_boats=80;
n_periods=20;
capacity=[68,51,63,26,72,62,24,54,80,9,61,58,20,84,51,79,81,27,54,70,86,5,24,85,81,76,78,5,55,55,7,25,8,54,15,66,75,50,2,24,10,81,6,39,88,60,22,36,40,77,24,33,50,71,75,19,16,64,8,56,21,48,50,56,78,26,10,21,18,78,35,18,14,31,19,38,81,15,85,31];
crew=[45,40,32,19,40,13,2,4,35,4,28,39,16,42,33,27,73,17,12,41,45,3,7,39,53,42,30,5,45,25,4,7,7,29,7,35,7,37,2,3,8,43,2,23,64,53,20,8,21,10,2,24,14,63,21,11,13,22,6,26,1,39,40,20,23,19,1,7,8,19,33,3,13,2,3,17,25,11,36,17];
